results_rootrelaxation/bin012_090_016.srr.sol
solution status: optimal solution found
objective value:                     29.1864406779661
_var717_                             0.35593220338983 	(obj:2)
_var737_                           0.0677966101694913 	(obj:3)
_var748_                            0.491525423728813 	(obj:2)
_var751_                            0.186440677966101 	(obj:4)
_var764_                            0.389830508474576 	(obj:2)
_var773_                            0.305084745762712 	(obj:3)
_var776_                            0.525423728813559 	(obj:2)
_var779_                           0.0847457627118641 	(obj:3)
_var796_                            0.271186440677967 	(obj:3)
_var799_                            0.372881355932203 	(obj:3)
_var800_                            0.610169491525424 	(obj:2)
_var803_                            0.288135593220339 	(obj:3)
_var810_                            0.135593220338983 	(obj:2)
_var816_                            0.152542372881355 	(obj:1)
_var821_                            0.254237288135593 	(obj:3)
_var845_                            0.135593220338983 	(obj:2)
_var846_                            0.610169491525424 	(obj:2)
_var847_                            0.135593220338983 	(obj:3)
_var849_                            0.101694915254237 	(obj:2)
_var853_                            0.338983050847458 	(obj:3)
_var855_                           0.0508474576271179 	(obj:4)
_var857_                            0.271186440677966 	(obj:2)
_var873_                            0.067796610169491 	(obj:4)
_var884_                            0.508474576271187 	(obj:3)
_var885_                           0.0508474576271182 	(obj:3)
_var889_                            0.288135593220338 	(obj:3)
_var891_                           0.0169491525423736 	(obj:3)
_var900_                            0.101694915254238 	(obj:3)
_var901_                           0.0847457627118645 	(obj:1)
_var903_                            0.271186440677966 	(obj:4)
_var907_                           0.0677966101694911 	(obj:3)
_var911_                            0.237288135593221 	(obj:3)
_var913_                           0.0338983050847458 	(obj:2)
_var914_                            0.118644067796611 	(obj:3)
_var919_                           0.0847457627118647 	(obj:2)
_var923_                             0.35593220338983 	(obj:3)
_var931_                            0.152542372881357 	(obj:3)
_var933_                             0.11864406779661 	(obj:1)
_var934_                            0.474576271186441 	(obj:3)
_var935_                           0.0508474576271187 	(obj:4)
_var937_                            0.135593220338983 	(obj:3)
_var938_                           0.0169491525423734 	(obj:3)
_var939_                            0.237288135593221 	(obj:4)
_var940_                           0.0338983050847458 	(obj:2)
_var942_                            0.338983050847458 	(obj:2)
_var943_                            0.152542372881357 	(obj:2)
_var944_                            0.101694915254237 	(obj:4)
_var947_                           0.0169491525423729 	(obj:4)
_var948_                             0.11864406779661 	(obj:3)
_var951_                           0.0169491525423729 	(obj:4)
_var953_                            0.220338983050848 	(obj:4)
_var954_                            0.135593220338983 	(obj:3)
_var957_                            0.152542372881356 	(obj:2)
_var958_                            0.101694915254237 	(obj:4)
